p cnf 524 1515
-1 2 51 0
1 2 -51 0
-1 -2 -51 0
1 -2 51 0
-3 -5 52 0
3 -5 -52 0
-3 5 -52 0
3 5 52 0
9 14 53 0
-9 14 -53 0
9 -14 -53 0
-9 -14 53 0
16 -17 54 0
-16 -17 -54 0
16 17 -54 0
-16 17 54 0
19 -23 55 0
-19 -23 -55 0
19 23 -55 0
-19 23 55 0
-25 26 56 0
25 26 -56 0
-25 -26 -56 0
25 -26 56 0
-27 29 57 0
27 29 -57 0
-27 -29 -57 0
27 -29 57 0
-31 32 58 0
31 32 -58 0
-31 -32 -58 0
31 -32 58 0
-34 35 59 0
34 35 -59 0
-34 -35 -59 0
34 -35 59 0
38 40 60 0
-38 40 -60 0
38 -40 -60 0
-38 -40 60 0
46 -48 61 0
-46 -48 -61 0
46 48 -61 0
-46 48 61 0
-49 -50 62 0
49 -50 -62 0
-49 50 -62 0
49 50 62 0
51 -52 63 0
-51 -52 -63 0
51 52 -63 0
-51 52 63 0
53 -54 64 0
-53 -54 -64 0
53 54 -64 0
-53 54 64 0
55 -56 65 0
-55 -56 -65 0
55 56 -65 0
-55 56 65 0
57 -58 66 0
-57 -58 -66 0
57 58 -66 0
-57 58 66 0
59 -60 67 0
-59 -60 -67 0
59 60 -67 0
-59 60 67 0
61 -62 68 0
-61 -62 -68 0
61 62 -68 0
-61 62 68 0
63 -64 69 0
-63 -64 -69 0
63 64 -69 0
-63 64 69 0
65 -66 70 0
-65 -66 -70 0
65 66 -70 0
-65 66 70 0
67 -68 71 0
-67 -68 -71 0
67 68 -71 0
-67 68 71 0
-69 -70 71 0
69 -70 -71 0
-69 70 -71 0
69 70 71 0
2 -3 72 0
-2 -3 -72 0
2 3 -72 0
-2 3 72 0
4 -9 73 0
-4 -9 -73 0
4 9 -73 0
-4 9 73 0
11 14 74 0
-11 14 -74 0
11 -14 -74 0
-11 -14 74 0
16 -18 75 0
-16 -18 -75 0
16 18 -75 0
-16 18 75 0
-21 22 76 0
21 22 -76 0
-21 -22 -76 0
21 -22 76 0
23 -28 77 0
-23 -28 -77 0
23 28 -77 0
-23 28 77 0
29 33 78 0
-29 33 -78 0
29 -33 -78 0
-29 -33 78 0
-35 44 79 0
35 44 -79 0
-35 -44 -79 0
35 -44 79 0
47 -48 80 0
-47 -48 -80 0
47 48 -80 0
-47 48 80 0
72 -73 81 0
-72 -73 -81 0
72 73 -81 0
-72 73 81 0
74 -75 82 0
-74 -75 -82 0
74 75 -82 0
-74 75 82 0
76 -77 83 0
-76 -77 -83 0
76 77 -83 0
-76 77 83 0
78 -79 84 0
-78 -79 -84 0
78 79 -84 0
-78 79 84 0
80 -81 85 0
-80 -81 -85 0
80 81 -85 0
-80 81 85 0
82 -83 86 0
-82 -83 -86 0
82 83 -86 0
-82 83 86 0
-84 -85 86 0
84 -85 -86 0
-84 85 -86 0
84 85 86 0
4 5 87 0
-4 5 -87 0
4 -5 -87 0
-4 -5 87 0
6 7 88 0
-6 7 -88 0
6 -7 -88 0
-6 -7 88 0
-10 -11 89 0
10 -11 -89 0
-10 11 -89 0
10 11 89 0
14 -16 90 0
-14 -16 -90 0
14 16 -90 0
-14 16 90 0
17 19 91 0
-17 19 -91 0
17 -19 -91 0
-17 -19 91 0
20 -21 92 0
-20 -21 -92 0
20 21 -92 0
-20 21 92 0
28 -30 93 0
-28 -30 -93 0
28 30 -93 0
-28 30 93 0
-31 32 94 0
31 32 -94 0
-31 -32 -94 0
31 -32 94 0
33 -36 95 0
-33 -36 -95 0
33 36 -95 0
-33 36 95 0
-42 -44 96 0
42 -44 -96 0
-42 44 -96 0
42 44 96 0
-46 -47 97 0
46 -47 -97 0
-46 47 -97 0
46 47 97 0
49 50 98 0
-49 50 -98 0
49 -50 -98 0
-49 -50 98 0
87 -88 99 0
-87 -88 -99 0
87 88 -99 0
-87 88 99 0
89 -90 100 0
-89 -90 -100 0
89 90 -100 0
-89 90 100 0
91 -92 101 0
-91 -92 -101 0
91 92 -101 0
-91 92 101 0
93 -94 102 0
-93 -94 -102 0
93 94 -102 0
-93 94 102 0
95 -96 103 0
-95 -96 -103 0
95 96 -103 0
-95 96 103 0
97 -98 104 0
-97 -98 -104 0
97 98 -104 0
-97 98 104 0
99 -100 105 0
-99 -100 -105 0
99 100 -105 0
-99 100 105 0
101 -102 106 0
-101 -102 -106 0
101 102 -106 0
-101 102 106 0
103 -104 107 0
-103 -104 -107 0
103 104 -107 0
-103 104 107 0
-105 -106 107 0
105 -106 -107 0
-105 106 -107 0
105 106 107 0
3 6 108 0
-3 6 -108 0
3 -6 -108 0
-3 -6 108 0
-7 -9 109 0
7 -9 -109 0
-7 9 -109 0
7 9 109 0
-10 -11 110 0
10 -11 -110 0
-10 11 -110 0
10 11 110 0
15 -16 111 0
-15 -16 -111 0
15 16 -111 0
-15 16 111 0
-17 -19 112 0
17 -19 -112 0
-17 19 -112 0
17 19 112 0
-21 -22 113 0
21 -22 -113 0
-21 22 -113 0
21 22 113 0
23 26 114 0
-23 26 -114 0
23 -26 -114 0
-23 -26 114 0
-27 -28 115 0
27 -28 -115 0
-27 28 -115 0
27 28 115 0
-32 -35 116 0
32 -35 -116 0
-32 35 -116 0
32 35 116 0
-36 38 117 0
36 38 -117 0
-36 -38 -117 0
36 -38 117 0
40 -41 118 0
-40 -41 -118 0
40 41 -118 0
-40 41 118 0
42 43 119 0
-42 43 -119 0
42 -43 -119 0
-42 -43 119 0
45 46 120 0
-45 46 -120 0
45 -46 -120 0
-45 -46 120 0
47 48 121 0
-47 48 -121 0
47 -48 -121 0
-47 -48 121 0
49 50 122 0
-49 50 -122 0
49 -50 -122 0
-49 -50 122 0
108 -109 123 0
-108 -109 -123 0
108 109 -123 0
-108 109 123 0
110 -111 124 0
-110 -111 -124 0
110 111 -124 0
-110 111 124 0
112 -113 125 0
-112 -113 -125 0
112 113 -125 0
-112 113 125 0
114 -115 126 0
-114 -115 -126 0
114 115 -126 0
-114 115 126 0
116 -117 127 0
-116 -117 -127 0
116 117 -127 0
-116 117 127 0
118 -119 128 0
-118 -119 -128 0
118 119 -128 0
-118 119 128 0
120 -121 129 0
-120 -121 -129 0
120 121 -129 0
-120 121 129 0
122 -123 130 0
-122 -123 -130 0
122 123 -130 0
-122 123 130 0
124 -125 131 0
-124 -125 -131 0
124 125 -131 0
-124 125 131 0
126 -127 132 0
-126 -127 -132 0
126 127 -132 0
-126 127 132 0
128 -129 133 0
-128 -129 -133 0
128 129 -133 0
-128 129 133 0
130 -131 134 0
-130 -131 -134 0
130 131 -134 0
-130 131 134 0
132 -133 135 0
-132 -133 -135 0
132 133 -135 0
-132 133 135 0
134 135 0
-134 -135 0
3 -4 136 0
-3 -4 -136 0
3 4 -136 0
-3 4 136 0
6 9 137 0
-6 9 -137 0
6 -9 -137 0
-6 -9 137 0
11 -13 138 0
-11 -13 -138 0
11 13 -138 0
-11 13 138 0
15 -16 139 0
-15 -16 -139 0
15 16 -139 0
-15 16 139 0
17 -18 140 0
-17 -18 -140 0
17 18 -140 0
-17 18 140 0
21 -24 141 0
-21 -24 -141 0
21 24 -141 0
-21 24 141 0
-26 -27 142 0
26 -27 -142 0
-26 27 -142 0
26 27 142 0
28 30 143 0
-28 30 -143 0
28 -30 -143 0
-28 -30 143 0
-31 32 144 0
31 32 -144 0
-31 -32 -144 0
31 -32 144 0
33 -34 145 0
-33 -34 -145 0
33 34 -145 0
-33 34 145 0
-35 -36 146 0
35 -36 -146 0
-35 36 -146 0
35 36 146 0
38 -40 147 0
-38 -40 -147 0
38 40 -147 0
-38 40 147 0
41 -43 148 0
-41 -43 -148 0
41 43 -148 0
-41 43 148 0
-45 49 149 0
45 49 -149 0
-45 -49 -149 0
45 -49 149 0
135 -136 150 0
-135 -136 -150 0
135 136 -150 0
-135 136 150 0
137 -138 151 0
-137 -138 -151 0
137 138 -151 0
-137 138 151 0
139 -140 152 0
-139 -140 -152 0
139 140 -152 0
-139 140 152 0
141 -142 153 0
-141 -142 -153 0
141 142 -153 0
-141 142 153 0
143 -144 154 0
-143 -144 -154 0
143 144 -154 0
-143 144 154 0
145 -146 155 0
-145 -146 -155 0
145 146 -155 0
-145 146 155 0
147 -148 156 0
-147 -148 -156 0
147 148 -156 0
-147 148 156 0
149 -150 157 0
-149 -150 -157 0
149 150 -157 0
-149 150 157 0
151 -152 158 0
-151 -152 -158 0
151 152 -158 0
-151 152 158 0
153 -154 159 0
-153 -154 -159 0
153 154 -159 0
-153 154 159 0
155 -156 160 0
-155 -156 -160 0
155 156 -160 0
-155 156 160 0
157 -158 161 0
-157 -158 -161 0
157 158 -161 0
-157 158 161 0
159 -160 162 0
-159 -160 -162 0
159 160 -162 0
-159 160 162 0
161 162 0
-161 -162 0
3 -4 163 0
-3 -4 -163 0
3 4 -163 0
-3 4 163 0
-5 -7 164 0
5 -7 -164 0
-5 7 -164 0
5 7 164 0
-10 11 165 0
10 11 -165 0
-10 -11 -165 0
10 -11 165 0
12 -15 166 0
-12 -15 -166 0
12 15 -166 0
-12 15 166 0
19 21 167 0
-19 21 -167 0
19 -21 -167 0
-19 -21 167 0
-22 -23 168 0
22 -23 -168 0
-22 23 -168 0
22 23 168 0
-24 26 169 0
24 26 -169 0
-24 -26 -169 0
24 -26 169 0
29 -31 170 0
-29 -31 -170 0
29 31 -170 0
-29 31 170 0
32 34 171 0
-32 34 -171 0
32 -34 -171 0
-32 -34 171 0
35 39 172 0
-35 39 -172 0
35 -39 -172 0
-35 -39 172 0
41 42 173 0
-41 42 -173 0
41 -42 -173 0
-41 -42 173 0
162 -163 174 0
-162 -163 -174 0
162 163 -174 0
-162 163 174 0
164 -165 175 0
-164 -165 -175 0
164 165 -175 0
-164 165 175 0
166 -167 176 0
-166 -167 -176 0
166 167 -176 0
-166 167 176 0
168 -169 177 0
-168 -169 -177 0
168 169 -177 0
-168 169 177 0
170 -171 178 0
-170 -171 -178 0
170 171 -178 0
-170 171 178 0
172 -173 179 0
-172 -173 -179 0
172 173 -179 0
-172 173 179 0
174 -175 180 0
-174 -175 -180 0
174 175 -180 0
-174 175 180 0
176 -177 181 0
-176 -177 -181 0
176 177 -181 0
-176 177 181 0
178 -179 182 0
-178 -179 -182 0
178 179 -182 0
-178 179 182 0
-180 -181 182 0
180 -181 -182 0
-180 181 -182 0
180 181 182 0
-1 2 183 0
1 2 -183 0
-1 -2 -183 0
1 -2 183 0
-3 -7 184 0
3 -7 -184 0
-3 7 -184 0
3 7 184 0
-8 -9 185 0
8 -9 -185 0
-8 9 -185 0
8 9 185 0
-10 11 186 0
10 11 -186 0
-10 -11 -186 0
10 -11 186 0
12 14 187 0
-12 14 -187 0
12 -14 -187 0
-12 -14 187 0
15 16 188 0
-15 16 -188 0
15 -16 -188 0
-15 -16 188 0
-19 20 189 0
19 20 -189 0
-19 -20 -189 0
19 -20 189 0
-21 23 190 0
21 23 -190 0
-21 -23 -190 0
21 -23 190 0
24 -28 191 0
-24 -28 -191 0
24 28 -191 0
-24 28 191 0
-29 -31 192 0
29 -31 -192 0
-29 31 -192 0
29 31 192 0
-32 -33 193 0
32 -33 -193 0
-32 33 -193 0
32 33 193 0
40 -41 194 0
-40 -41 -194 0
40 41 -194 0
-40 41 194 0
43 44 195 0
-43 44 -195 0
43 -44 -195 0
-43 -44 195 0
-46 -49 196 0
46 -49 -196 0
-46 49 -196 0
46 49 196 0
183 -184 197 0
-183 -184 -197 0
183 184 -197 0
-183 184 197 0
185 -186 198 0
-185 -186 -198 0
185 186 -198 0
-185 186 198 0
187 -188 199 0
-187 -188 -199 0
187 188 -199 0
-187 188 199 0
189 -190 200 0
-189 -190 -200 0
189 190 -200 0
-189 190 200 0
191 -192 201 0
-191 -192 -201 0
191 192 -201 0
-191 192 201 0
193 -194 202 0
-193 -194 -202 0
193 194 -202 0
-193 194 202 0
195 -196 203 0
-195 -196 -203 0
195 196 -203 0
-195 196 203 0
197 -198 204 0
-197 -198 -204 0
197 198 -204 0
-197 198 204 0
199 -200 205 0
-199 -200 -205 0
199 200 -205 0
-199 200 205 0
201 -202 206 0
-201 -202 -206 0
201 202 -206 0
-201 202 206 0
203 -204 207 0
-203 -204 -207 0
203 204 -207 0
-203 204 207 0
205 -206 208 0
-205 -206 -208 0
205 206 -208 0
-205 206 208 0
207 208 0
-207 -208 0
-3 7 209 0
3 7 -209 0
-3 -7 -209 0
3 -7 209 0
-10 -12 210 0
10 -12 -210 0
-10 12 -210 0
10 12 210 0
-20 -21 211 0
20 -21 -211 0
-20 21 -211 0
20 21 211 0
22 24 212 0
-22 24 -212 0
22 -24 -212 0
-22 -24 212 0
30 -32 213 0
-30 -32 -213 0
30 32 -213 0
-30 32 213 0
34 38 214 0
-34 38 -214 0
34 -38 -214 0
-34 -38 214 0
-39 -43 215 0
39 -43 -215 0
-39 43 -215 0
39 43 215 0
208 -209 216 0
-208 -209 -216 0
208 209 -216 0
-208 209 216 0
210 -211 217 0
-210 -211 -217 0
210 211 -217 0
-210 211 217 0
212 -213 218 0
-212 -213 -218 0
212 213 -218 0
-212 213 218 0
214 -215 219 0
-214 -215 -219 0
214 215 -219 0
-214 215 219 0
216 -217 220 0
-216 -217 -220 0
216 217 -220 0
-216 217 220 0
218 -219 221 0
-218 -219 -221 0
218 219 -221 0
-218 219 221 0
220 221 0
-220 -221 0
2 5 222 0
-2 5 -222 0
2 -5 -222 0
-2 -5 222 0
6 -7 223 0
-6 -7 -223 0
6 7 -223 0
-6 7 223 0
-8 9 224 0
8 9 -224 0
-8 -9 -224 0
8 -9 224 0
-10 -11 225 0
10 -11 -225 0
-10 11 -225 0
10 11 225 0
-14 -15 226 0
14 -15 -226 0
-14 15 -226 0
14 15 226 0
19 -24 227 0
-19 -24 -227 0
19 24 -227 0
-19 24 227 0
-25 26 228 0
25 26 -228 0
-25 -26 -228 0
25 -26 228 0
-27 -28 229 0
27 -28 -229 0
-27 28 -229 0
27 28 229 0
-32 -34 230 0
32 -34 -230 0
-32 34 -230 0
32 34 230 0
-38 -41 231 0
38 -41 -231 0
-38 41 -231 0
38 41 231 0
-43 -45 232 0
43 -45 -232 0
-43 45 -232 0
43 45 232 0
-46 -47 233 0
46 -47 -233 0
-46 47 -233 0
46 47 233 0
-48 49 234 0
48 49 -234 0
-48 -49 -234 0
48 -49 234 0
222 -223 235 0
-222 -223 -235 0
222 223 -235 0
-222 223 235 0
224 -225 236 0
-224 -225 -236 0
224 225 -236 0
-224 225 236 0
226 -227 237 0
-226 -227 -237 0
226 227 -237 0
-226 227 237 0
228 -229 238 0
-228 -229 -238 0
228 229 -238 0
-228 229 238 0
230 -231 239 0
-230 -231 -239 0
230 231 -239 0
-230 231 239 0
232 -233 240 0
-232 -233 -240 0
232 233 -240 0
-232 233 240 0
234 -235 241 0
-234 -235 -241 0
234 235 -241 0
-234 235 241 0
236 -237 242 0
-236 -237 -242 0
236 237 -242 0
-236 237 242 0
238 -239 243 0
-238 -239 -243 0
238 239 -243 0
-238 239 243 0
240 -241 244 0
-240 -241 -244 0
240 241 -244 0
-240 241 244 0
242 -243 245 0
-242 -243 -245 0
242 243 -245 0
-242 243 245 0
244 245 0
-244 -245 0
-1 -7 246 0
1 -7 -246 0
-1 7 -246 0
1 7 246 0
11 14 247 0
-11 14 -247 0
11 -14 -247 0
-11 -14 247 0
17 19 248 0
-17 19 -248 0
17 -19 -248 0
-17 -19 248 0
-23 -24 249 0
23 -24 -249 0
-23 24 -249 0
23 24 249 0
25 -26 250 0
-25 -26 -250 0
25 26 -250 0
-25 26 250 0
28 29 251 0
-28 29 -251 0
28 -29 -251 0
-28 -29 251 0
-30 -31 252 0
30 -31 -252 0
-30 31 -252 0
30 31 252 0
32 -37 253 0
-32 -37 -253 0
32 37 -253 0
-32 37 253 0
38 -39 254 0
-38 -39 -254 0
38 39 -254 0
-38 39 254 0
-41 42 255 0
41 42 -255 0
-41 -42 -255 0
41 -42 255 0
43 46 256 0
-43 46 -256 0
43 -46 -256 0
-43 -46 256 0
-48 50 257 0
48 50 -257 0
-48 -50 -257 0
48 -50 257 0
246 -247 258 0
-246 -247 -258 0
246 247 -258 0
-246 247 258 0
248 -249 259 0
-248 -249 -259 0
248 249 -259 0
-248 249 259 0
250 -251 260 0
-250 -251 -260 0
250 251 -260 0
-250 251 260 0
252 -253 261 0
-252 -253 -261 0
252 253 -261 0
-252 253 261 0
254 -255 262 0
-254 -255 -262 0
254 255 -262 0
-254 255 262 0
256 -257 263 0
-256 -257 -263 0
256 257 -263 0
-256 257 263 0
258 -259 264 0
-258 -259 -264 0
258 259 -264 0
-258 259 264 0
260 -261 265 0
-260 -261 -265 0
260 261 -265 0
-260 261 265 0
262 -263 266 0
-262 -263 -266 0
262 263 -266 0
-262 263 266 0
-264 -265 266 0
264 -265 -266 0
-264 265 -266 0
264 265 266 0
-12 267 0
-24 267 0
-12 -24 268 0
-23 267 0
-12 -23 268 0
-24 -23 268 0
-12 -24 -23 269 0
-22 270 0
-21 270 0
-22 -21 271 0
-20 270 0
-22 -20 271 0
-21 -20 271 0
-22 -21 -20 272 0
-267 273 0
-268 274 0
-269 275 0
-270 273 0
-271 274 0
-272 275 0
-267 -270 274 0
-267 -271 275 0
-267 -272 276 0
-268 -270 275 0
-268 -271 276 0
-268 -272 277 0
-269 -270 276 0
-269 -271 277 0
-269 -272 278 0
-19 279 0
-18 279 0
-19 -18 280 0
-17 279 0
-19 -17 280 0
-18 -17 280 0
-19 -18 -17 281 0
-16 282 0
-15 282 0
-16 -15 283 0
-14 282 0
-16 -14 283 0
-15 -14 283 0
-16 -15 -14 284 0
-279 285 0
-280 286 0
-281 287 0
-282 285 0
-283 286 0
-284 287 0
-279 -282 286 0
-279 -283 287 0
-279 -284 288 0
-280 -282 287 0
-280 -283 288 0
-280 -284 289 0
-281 -282 288 0
-281 -283 289 0
-281 -284 290 0
-13 291 0
-25 291 0
-13 -25 292 0
-11 291 0
-13 -11 292 0
-25 -11 292 0
-13 -25 -11 293 0
-10 294 0
-9 294 0
-10 -9 295 0
-8 294 0
-10 -8 295 0
-9 -8 295 0
-10 -9 -8 296 0
-291 297 0
-292 298 0
-293 299 0
-294 297 0
-295 298 0
-296 299 0
-291 -294 298 0
-291 -295 299 0
-291 -296 300 0
-292 -294 299 0
-292 -295 300 0
-292 -296 301 0
-293 -294 300 0
-293 -295 301 0
-293 -296 302 0
-7 303 0
-6 303 0
-7 -6 304 0
-5 303 0
-7 -5 304 0
-6 -5 304 0
-7 -6 -5 305 0
-4 306 0
-3 306 0
-4 -3 307 0
-2 308 0
-1 308 0
-2 -1 309 0
-37 308 0
-2 -37 309 0
-1 -37 309 0
-2 -1 -37 310 0
-306 311 0
-307 312 0
-308 311 0
-309 312 0
-310 313 0
-306 -308 312 0
-306 -309 313 0
-306 -310 314 0
-307 -308 313 0
-307 -309 314 0
-307 -310 315 0
-303 316 0
-304 317 0
-305 318 0
-311 316 0
-312 317 0
-313 318 0
-314 319 0
-315 320 0
-303 -311 317 0
-303 -312 318 0
-303 -313 319 0
-303 -314 320 0
-303 -315 321 0
-304 -311 318 0
-304 -312 319 0
-304 -313 320 0
-304 -314 321 0
-304 -315 322 0
-305 -311 319 0
-305 -312 320 0
-305 -313 321 0
-305 -314 322 0
-305 -315 323 0
-49 324 0
-48 324 0
-49 -48 325 0
-47 324 0
-49 -47 325 0
-48 -47 325 0
-49 -48 -47 326 0
-46 327 0
-45 327 0
-46 -45 328 0
-44 329 0
-43 329 0
-44 -43 330 0
-42 329 0
-44 -42 330 0
-43 -42 330 0
-44 -43 -42 331 0
-327 332 0
-328 333 0
-329 332 0
-330 333 0
-331 334 0
-327 -329 333 0
-327 -330 334 0
-327 -331 335 0
-328 -329 334 0
-328 -330 335 0
-328 -331 336 0
-324 337 0
-325 338 0
-326 339 0
-332 337 0
-333 338 0
-334 339 0
-335 340 0
-336 341 0
-324 -332 338 0
-324 -333 339 0
-324 -334 340 0
-324 -335 341 0
-324 -336 342 0
-325 -332 339 0
-325 -333 340 0
-325 -334 341 0
-325 -335 342 0
-325 -336 343 0
-326 -332 340 0
-326 -333 341 0
-326 -334 342 0
-326 -335 343 0
-326 -336 344 0
-41 345 0
-40 345 0
-41 -40 346 0
-39 345 0
-41 -39 346 0
-40 -39 346 0
-41 -40 -39 347 0
-38 348 0
-50 348 0
-38 -50 349 0
-36 350 0
-35 350 0
-36 -35 351 0
-34 350 0
-36 -34 351 0
-35 -34 351 0
-36 -35 -34 352 0
-348 353 0
-349 354 0
-350 353 0
-351 354 0
-352 355 0
-348 -350 354 0
-348 -351 355 0
-348 -352 356 0
-349 -350 355 0
-349 -351 356 0
-349 -352 357 0
-345 358 0
-346 359 0
-347 360 0
-353 358 0
-354 359 0
-355 360 0
-356 361 0
-357 362 0
-345 -353 359 0
-345 -354 360 0
-345 -355 361 0
-345 -356 362 0
-345 -357 363 0
-346 -353 360 0
-346 -354 361 0
-346 -355 362 0
-346 -356 363 0
-346 -357 364 0
-347 -353 361 0
-347 -354 362 0
-347 -355 363 0
-347 -356 364 0
-347 -357 365 0
-33 366 0
-32 366 0
-33 -32 367 0
-31 366 0
-33 -31 367 0
-32 -31 367 0
-33 -32 -31 368 0
-30 369 0
-29 369 0
-30 -29 370 0
-28 371 0
-27 371 0
-28 -27 372 0
-26 371 0
-28 -26 372 0
-27 -26 372 0
-28 -27 -26 373 0
-369 374 0
-370 375 0
-371 374 0
-372 375 0
-373 376 0
-369 -371 375 0
-369 -372 376 0
-369 -373 377 0
-370 -371 376 0
-370 -372 377 0
-370 -373 378 0
-366 379 0
-367 380 0
-368 381 0
-374 379 0
-375 380 0
-376 381 0
-377 382 0
-378 383 0
-366 -374 380 0
-366 -375 381 0
-366 -376 382 0
-366 -377 383 0
-366 -378 384 0
-367 -374 381 0
-367 -375 382 0
-367 -376 383 0
-367 -377 384 0
-367 -378 385 0
-368 -374 382 0
-368 -375 383 0
-368 -376 384 0
-368 -377 385 0
-368 -378 386 0
-358 387 0
-360 388 0
-362 389 0
-364 390 0
-379 387 0
-381 388 0
-383 389 0
-385 390 0
-358 -379 388 0
-358 -381 389 0
-358 -383 390 0
-358 -385 391 0
-360 -379 389 0
-360 -381 390 0
-360 -383 391 0
-360 -385 392 0
-362 -379 390 0
-362 -381 391 0
-362 -383 392 0
-364 -379 391 0
-364 -381 392 0
-359 393 0
-363 394 0
-380 393 0
-384 394 0
-359 -380 394 0
-359 -384 395 0
-363 -380 395 0
-361 396 0
-365 397 0
-382 396 0
-386 397 0
-361 -382 397 0
-394 398 0
-396 398 0
-394 -396 399 0
-395 400 0
-397 400 0
-395 -397 401 0
-388 402 0
-393 402 0
-388 -393 403 0
-389 404 0
-398 404 0
-389 -398 405 0
-390 406 0
-399 406 0
-390 -399 407 0
-391 408 0
-400 408 0
-391 -400 409 0
-392 410 0
-401 410 0
-392 -401 411 0
-337 412 0
-339 413 0
-341 414 0
-343 415 0
-387 412 0
-403 413 0
-405 414 0
-407 415 0
-409 416 0
-411 417 0
-337 -387 413 0
-337 -403 414 0
-337 -405 415 0
-337 -407 416 0
-337 -409 417 0
-339 -387 414 0
-339 -403 415 0
-339 -405 416 0
-339 -407 417 0
-341 -387 415 0
-341 -403 416 0
-341 -405 417 0
-343 -387 416 0
-343 -403 417 0
-338 418 0
-342 419 0
-402 418 0
-406 419 0
-410 420 0
-338 -402 419 0
-338 -406 420 0
-342 -402 420 0
-340 421 0
-344 422 0
-404 421 0
-408 422 0
-340 -404 422 0
-419 423 0
-421 423 0
-419 -421 424 0
-420 425 0
-422 425 0
-420 -422 426 0
-413 427 0
-418 427 0
-413 -418 428 0
-414 429 0
-423 429 0
-414 -423 430 0
-415 431 0
-424 431 0
-415 -424 432 0
-416 433 0
-425 433 0
-416 -425 434 0
-417 435 0
-426 435 0
-417 -426 436 0
-316 437 0
-318 438 0
-320 439 0
-322 440 0
-412 437 0
-428 438 0
-430 439 0
-432 440 0
-434 441 0
-436 442 0
-316 -412 438 0
-316 -428 439 0
-316 -430 440 0
-316 -432 441 0
-316 -434 442 0
-318 -412 439 0
-318 -428 440 0
-318 -430 441 0
-318 -432 442 0
-320 -412 440 0
-320 -428 441 0
-320 -430 442 0
-322 -412 441 0
-322 -428 442 0
-317 443 0
-321 444 0
-427 443 0
-431 444 0
-435 445 0
-317 -427 444 0
-317 -431 445 0
-321 -427 445 0
-319 446 0
-323 447 0
-429 446 0
-433 447 0
-319 -429 447 0
-444 448 0
-446 448 0
-444 -446 449 0
-445 450 0
-447 450 0
-445 -447 451 0
-438 452 0
-443 452 0
-438 -443 453 0
-439 454 0
-448 454 0
-439 -448 455 0
-440 456 0
-449 456 0
-440 -449 457 0
-441 458 0
-450 458 0
-441 -450 459 0
-442 460 0
-451 460 0
-442 -451 461 0
-297 462 0
-299 463 0
-301 464 0
-437 462 0
-453 463 0
-455 464 0
-457 465 0
-459 466 0
-461 467 0
-297 -437 463 0
-297 -453 464 0
-297 -455 465 0
-297 -457 466 0
-297 -459 467 0
-299 -437 464 0
-299 -453 465 0
-299 -455 466 0
-299 -457 467 0
-301 -437 465 0
-301 -453 466 0
-301 -455 467 0
-298 468 0
-300 469 0
-302 470 0
-452 468 0
-454 469 0
-456 470 0
-458 471 0
-460 472 0
-298 -452 469 0
-298 -454 470 0
-298 -456 471 0
-298 -458 472 0
-300 -452 470 0
-300 -454 471 0
-300 -456 472 0
-302 -452 471 0
-302 -454 472 0
-463 473 0
-468 473 0
-463 -468 474 0
-464 475 0
-469 475 0
-464 -469 476 0
-465 477 0
-470 477 0
-465 -470 478 0
-466 479 0
-471 479 0
-466 -471 480 0
-467 481 0
-472 481 0
-467 -472 482 0
-285 483 0
-287 484 0
-289 485 0
-462 483 0
-474 484 0
-476 485 0
-478 486 0
-480 487 0
-482 488 0
-285 -462 484 0
-285 -474 485 0
-285 -476 486 0
-285 -478 487 0
-285 -480 488 0
-287 -462 485 0
-287 -474 486 0
-287 -476 487 0
-287 -478 488 0
-289 -462 486 0
-289 -474 487 0
-289 -476 488 0
-286 489 0
-288 490 0
-290 491 0
-473 489 0
-475 490 0
-477 491 0
-479 492 0
-481 493 0
-286 -473 490 0
-286 -475 491 0
-286 -477 492 0
-286 -479 493 0
-288 -473 491 0
-288 -475 492 0
-288 -477 493 0
-290 -473 492 0
-290 -475 493 0
-484 494 0
-489 494 0
-484 -489 495 0
-485 496 0
-490 496 0
-485 -490 497 0
-486 498 0
-491 498 0
-486 -491 499 0
-487 500 0
-492 500 0
-487 -492 501 0
-488 502 0
-493 502 0
-488 -493 503 0
-273 504 0
-275 505 0
-277 506 0
-483 504 0
-495 505 0
-497 506 0
-499 507 0
-501 508 0
-503 509 0
-273 -483 505 0
-273 -495 506 0
-273 -497 507 0
-273 -499 508 0
-273 -501 509 0
-275 -483 506 0
-275 -495 507 0
-275 -497 508 0
-275 -499 509 0
-277 -483 507 0
-277 -495 508 0
-277 -497 509 0
-274 510 0
-276 511 0
-278 512 0
-494 510 0
-496 511 0
-498 512 0
-500 513 0
-502 514 0
-274 -494 511 0
-274 -496 512 0
-274 -498 513 0
-274 -500 514 0
-276 -494 512 0
-276 -496 513 0
-276 -498 514 0
-278 -494 513 0
-278 -496 514 0
-505 515 0
-510 515 0
-505 -510 516 0
-506 517 0
-511 517 0
-506 -511 518 0
-507 519 0
-512 519 0
-507 -512 520 0
-508 521 0
-513 521 0
-508 -513 522 0
-509 523 0
-514 523 0
-509 -514 524 0
-524 0
